
Gurobi 11.0.3 (linux64) logging started Sun Nov 24 16:54:15 2024

Set parameter LogFile to value "/home/yihong/Coding/OR_SUC/SUC_results_bigM100000_thread4/case24_ieee_rts_theta0.5_epsilon0.05_gurobi_seed1270000_num_gen100_N_WDR100_load_scaling_factor1_proposed_T8quadra_cost.txt"
Set parameter TimeLimit to value 3600
Gurobi Optimizer version 11.0.3 build v11.0.3rc0 (linux64 - "Ubuntu 20.04.6 LTS")

CPU model: AMD EPYC 7532 32-Core Processor, instruction set [SSE2|AVX|AVX2]
Thread count: 64 physical cores, 128 logical processors, using up to 4 threads

Optimize a model with 18854 rows, 10021 columns and 437434 nonzeros
Model fingerprint: 0xa9415324
Model has 800 quadratic constraints
Variable types: 9221 continuous, 800 integer (800 binary)
Coefficient statistics:
  Matrix range     [3e-04, 2e+03]
  QMatrix range    [2e-03, 8e-03]
  QLMatrix range   [4e-01, 6e+01]
  Objective range  [1e+00, 1e+00]
  Bounds range     [1e+00, 1e+00]
  RHS range        [1e+00, 9e+03]
Presolve removed 15615 rows and 4427 columns
Presolve time: 0.11s
Presolved: 3239 rows, 5594 columns, 18928 nonzeros
Presolved model has 800 quadratic constraint(s)
Variable types: 4794 continuous, 800 integer (800 binary)

Root relaxation: objective 1.783097e+04, 2809 iterations, 0.05 seconds (0.07 work units)

    Nodes    |    Current Node    |     Objective Bounds      |     Work
 Expl Unexpl |  Obj  Depth IntInf | Incumbent    BestBd   Gap | It/Node Time

     0     0 17830.9687    0    8          - 17830.9687      -     -    0s
     0     0 101445.517    0  326          - 101445.517      -     -    0s
     0     0 191550.518    0   83          - 191550.518      -     -    0s
     0     0 191556.987    0   83          - 191556.987      -     -    0s
     0     0 191646.203    0   59          - 191646.203      -     -    0s
     0     0 191646.372    0   60          - 191646.372      -     -    0s
     0     0 191646.531    0   60          - 191646.531      -     -    0s
     0     0 191646.617    0   60          - 191646.617      -     -    0s
     0     2 191646.617    0   60          - 191646.617      -     -    0s
H  185   206                    191727.32749 191650.176  0.04%   6.9    1s
*  185   206              59    191727.32749 191650.176  0.04%   6.9    1s

Cutting planes:
  Gomory: 44
  Implied bound: 185
  MIR: 54
  Flow cover: 200
  RLT: 6

Explored 217 nodes (8343 simplex iterations) in 1.30 seconds (1.31 work units)
Thread count was 4 (of 128 available processors)

Solution count 2: 191727 191727 

Optimal solution found (tolerance 1.00e-03)
Warning: max constraint violation (2.9839e-07) exceeds tolerance
Best objective 1.917273274929e+05, best bound 1.916501756349e+05, gap 0.0402%
